DIMACS2
40 148 178 107 52 275 166 39 259 71 245 304 219 90 12 105 131 65 165 108 23 36 66 5 110 316 146 13 88 77 192 112 262 251 83 204 48 38 198 254 67
p edge 320 761
e 0 164 1.0
e 0 175 1.0
e 1 30 2.0
e 1 235 2.0
e 2 156 1.0
e 2 111 1.0
e 3 195 1.0
e 3 16 1.0
e 4 122 1.0
e 4 11 2.0
e 5 260 7.0
e 5 15 46.0
e 5 36 13.0
e 5 165 39.0
e 5 131 49.0
e 5 192 20.0
e 5 60 45.0
e 5 219 34.0
e 6 205 1.0
e 6 174 1.0
e 7 145 2.0
e 7 263 1.0
e 8 214 2.0
e 8 111 3.0
e 9 254 46.0
e 9 224 1.0
e 10 33 1.0
e 10 120 2.0
e 11 174 2.0
e 11 219 2.0
e 12 266 10.0
e 12 285 25.0
e 12 23 25.0
e 12 245 5.0
e 12 204 40.0
e 12 165 23.0
e 13 40 49.0
e 13 105 33.0
e 13 165 6.0
e 13 83 38.0
e 13 219 27.0
e 13 245 20.0
e 13 275 43.0
e 13 107 31.0
e 14 65 14.0
e 14 56 5.0
e 15 195 1.0
e 15 260 1.0
e 16 270 2.0
e 16 22 2.0
e 17 228 1.0
e 17 11 1.0
e 18 208 1.0
e 18 62 1.0
e 19 51 1.0
e 19 205 1.0
e 20 40 2.0
e 20 241 2.0
e 21 230 1.0
e 21 232 2.0
e 22 125 1.0
e 22 256 1.0
e 23 121 11.0
e 23 91 7.0
e 23 192 7.0
e 23 36 2.0
e 23 165 4.0
e 23 219 11.0
e 23 316 6.0
e 24 146 31.0
e 24 61 1.0
e 25 117 1.0
e 25 248 1.0
e 26 213 1.0
e 26 226 1.0
e 27 26 1.0
e 27 202 1.0
e 28 213 1.0
e 28 120 1.0
e 29 250 3.0
e 29 138 1.0
e 30 180 1.0
e 30 164 1.0
e 31 114 1.0
e 31 111 1.0
e 32 89 1.0
e 32 54 2.0
e 33 276 1.0
e 33 157 3.0
e 34 206 2.0
e 34 311 1.0
e 35 119 1.0
e 35 305 1.0
e 36 149 5.0
e 36 248 12.0
e 36 146 47.0
e 36 165 37.0
e 37 20 1.0
e 37 117 1.0
e 38 134 9.0
e 38 110 36.0
e 38 219 49.0
e 38 245 2.0
e 38 23 45.0
e 38 251 24.0
e 39 206 16.0
e 39 64 47.0
e 39 251 5.0
e 39 165 30.0
e 39 131 42.0
e 39 36 42.0
e 39 295 44.0
e 40 315 2.0
e 40 273 1.0
e 41 16 1.0
e 41 81 1.0
e 42 94 1.0
e 42 6 1.0
e 43 298 2.0
e 43 132 1.0
e 44 221 1.0
e 44 50 1.0
e 45 216 1.0
e 45 185 2.0
e 46 301 1.0
e 46 131 39.0
e 47 10 2.0
e 47 120 2.0
e 48 121 49.0
e 48 123 28.0
e 48 204 24.0
e 48 146 36.0
e 48 316 1.0
e 48 65 44.0
e 48 219 38.0
e 48 66 25.0
e 49 97 1.0
e 49 39 32.0
e 50 114 1.0
e 50 130 1.0
e 51 163 2.0
e 51 167 1.0
e 52 249 7.0
e 52 262 29.0
e 52 38 8.0
e 52 275 32.0
e 52 192 19.0
e 52 304 47.0
e 52 131 29.0
e 52 251 24.0
e 53 177 2.0
e 53 94 2.0
e 54 228 1.0
e 54 130 3.0
e 55 31 2.0
e 55 22 1.0
e 56 185 1.0
e 56 106 1.0
e 57 195 1.0
e 57 304 44.0
e 58 37 2.0
e 58 134 2.0
e 59 162 2.0
e 59 12 16.0
e 60 83 23.0
e 60 26 1.0
e 61 184 1.0
e 61 99 1.0
e 62 213 1.0
e 62 236 1.0
e 63 140 1.0
e 63 246 2.0
e 64 163 2.0
e 64 221 1.0
e 65 174 44.0
e 65 313 49.0
e 65 105 28.0
e 65 67 28.0
e 65 251 10.0
e 65 52 38.0
e 65 66 19.0
e 66 291 39.0
e 66 45 42.0
e 66 304 47.0
e 66 192 16.0
e 66 178 29.0
e 67 89 29.0
e 67 142 16.0
e 67 83 9.0
e 67 48 1.0
e 67 198 40.0
e 68 109 1.0
e 68 289 1.0
e 69 185 2.0
e 69 110 39.0
e 70 104 1.0
e 70 275 33.0
e 71 190 5.0
e 71 200 18.0
e 71 251 46.0
e 71 39 30.0
e 71 254 5.0
e 71 165 48.0
e 71 304 16.0
e 72 14 4.0
e 72 258 1.0
e 73 288 1.0
e 73 34 1.0
e 74 220 1.0
e 74 273 1.0
e 75 198 43.0
e 75 114 1.0
e 76 35 1.0
e 76 115 1.0
e 77 254 28.0
e 77 81 2.0
e 77 110 10.0
e 77 304 14.0
e 77 105 31.0
e 77 316 48.0
e 78 117 1.0
e 78 273 1.0
e 79 240 1.0
e 79 158 1.0
e 80 293 1.0
e 80 268 2.0
e 81 180 1.0
e 81 271 1.0
e 82 243 1.0
e 82 92 2.0
e 83 200 4.0
e 83 261 40.0
e 83 131 42.0
e 83 304 39.0
e 83 251 26.0
e 83 316 27.0
e 84 205 1.0
e 84 153 2.0
e 85 188 1.0
e 85 238 1.0
e 86 21 1.0
e 86 224 1.0
e 87 202 2.0
e 87 114 2.0
e 88 142 49.0
e 88 120 35.0
e 88 65 10.0
e 88 131 23.0
e 88 146 25.0
e 88 66 46.0
e 88 192 45.0
e 88 148 47.0
e 89 143 1.0
e 89 138 1.0
e 90 63 18.0
e 90 55 26.0
e 90 304 6.0
e 90 105 24.0
e 90 131 48.0
e 90 110 32.0
e 90 259 15.0
e 90 67 25.0
e 90 165 23.0
e 91 265 1.0
e 91 136 1.0
e 92 111 1.0
e 92 32 1.0
e 93 221 1.0
e 93 95 1.0
e 94 15 1.0
e 94 136 2.0
e 95 152 1.0
e 95 77 46.0
e 96 246 1.0
e 96 148 19.0
e 97 182 1.0
e 97 30 1.0
e 98 202 1.0
e 98 275 45.0
e 99 78 2.0
e 99 236 1.0
e 100 211 1.0
e 100 147 1.0
e 101 299 1.0
e 101 316 28.0
e 102 81 1.0
e 102 217 1.0
e 103 208 2.0
e 103 13 26.0
e 104 233 1.0
e 104 199 2.0
e 105 224 40.0
e 105 196 18.0
e 105 107 24.0
e 105 262 37.0
e 106 228 1.0
e 106 224 1.0
e 107 243 9.0
e 107 315 22.0
e 107 71 7.0
e 107 316 33.0
e 107 204 18.0
e 107 77 37.0
e 108 94 40.0
e 108 192 14.0
e 108 5 1.0
e 108 204 12.0
e 108 83 7.0
e 108 251 16.0
e 108 254 21.0
e 108 131 11.0
e 109 38 29.0
e 109 206 1.0
e 110 53 34.0
e 110 79 26.0
e 110 254 13.0
e 110 166 20.0
e 110 316 1.0
e 111 120 1.0
e 111 221 1.0
e 112 224 5.0
e 112 17 31.0
e 112 88 47.0
e 112 178 31.0
e 112 146 25.0
e 112 148 14.0
e 112 12 7.0
e 113 12 47.0
e 113 85 1.0
e 114 129 3.0
e 114 312 1.0
e 115 1 1.0
e 115 149 1.0
e 116 80 1.0
e 116 183 1.0
e 117 81 1.0
e 117 286 1.0
e 118 225 1.0
e 118 28 1.0
e 119 273 3.0
e 119 167 1.0
e 120 150 1.0
e 120 138 2.0
e 121 167 1.0
e 121 245 9.0
e 122 106 1.0
e 122 301 1.0
e 123 86 2.0
e 123 124 5.0
e 124 122 1.0
e 124 76 2.0
e 125 106 2.0
e 125 104 2.0
e 126 66 38.0
e 126 285 2.0
e 127 58 3.0
e 127 101 2.0
e 128 107 3.0
e 128 103 1.0
e 129 280 1.0
e 129 70 1.0
e 130 33 1.0
e 130 22 2.0
e 131 260 5.0
e 131 263 49.0
e 132 262 46.0
e 132 185 1.0
e 133 75 1.0
e 133 206 3.0
e 134 175 2.0
e 134 228 1.0
e 135 253 3.0
e 135 189 1.0
e 136 53 1.0
e 136 24 1.0
e 137 93 2.0
e 137 22 1.0
e 138 112 13.0
e 138 117 1.0
e 139 91 1.0
e 139 93 1.0
e 140 74 1.0
e 140 36 16.0
e 141 85 1.0
e 141 80 1.0
e 142 195 1.0
e 142 219 9.0
e 143 309 1.0
e 143 12 40.0
e 144 211 1.0
e 144 41 1.0
e 145 56 1.0
e 145 209 1.0
e 146 290 47.0
e 146 157 37.0
e 147 124 1.0
e 147 25 1.0
e 148 244 17.0
e 148 153 33.0
e 148 259 30.0
e 148 316 44.0
e 148 13 36.0
e 149 96 1.0
e 149 221 1.0
e 150 184 1.0
e 150 98 1.0
e 151 138 1.0
e 151 227 2.0
e 152 78 1.0
e 152 232 2.0
e 153 188 1.0
e 153 78 2.0
e 154 116 4.0
e 154 205 1.0
e 155 144 1.0
e 155 42 2.0
e 156 132 1.0
e 156 99 1.0
e 157 290 2.0
e 157 134 1.0
e 158 170 1.0
e 158 258 2.0
e 159 79 2.0
e 159 171 1.0
e 160 217 1.0
e 160 36 21.0
e 161 233 1.0
e 161 150 1.0
e 162 191 1.0
e 162 142 1.0
e 163 26 2.0
e 163 117 1.0
e 164 171 1.0
e 164 86 1.0
e 165 317 34.0
e 165 213 48.0
e 166 216 21.0
e 166 154 42.0
e 166 90 14.0
e 166 178 24.0
e 166 254 19.0
e 166 204 36.0
e 166 259 16.0
e 166 105 45.0
e 167 312 2.0
e 167 118 2.0
e 168 14 1.0
e 168 170 1.0
e 169 210 2.0
e 169 115 1.0
e 170 121 1.0
e 170 257 1.0
e 171 119 1.0
e 171 246 1.0
e 172 291 1.0
e 172 214 1.0
e 173 304 24.0
e 173 205 1.0
e 174 146 18.0
e 174 139 1.0
e 175 234 1.0
e 175 186 1.0
e 176 80 1.0
e 176 271 1.0
e 177 71 26.0
e 177 98 1.0
e 178 113 11.0
e 178 2 30.0
e 178 107 33.0
e 178 192 5.0
e 178 108 26.0
e 178 254 24.0
e 179 199 2.0
e 179 263 2.0
e 180 4 2.0
e 180 194 1.0
e 181 245 37.0
e 181 298 3.0
e 182 66 14.0
e 183 284 2.0
e 183 240 1.0
e 184 253 1.0
e 184 311 1.0
e 185 293 1.0
e 185 240 1.0
e 186 187 2.0
e 186 293 1.0
e 187 169 1.0
e 187 126 1.0
e 188 194 2.0
e 188 73 1.0
e 189 98 1.0
e 189 226 1.0
e 190 252 1.0
e 190 225 1.0
e 191 269 1.0
e 191 285 1.0
e 192 240 31.0
e 192 180 22.0
e 193 37 1.0
e 193 234 1.0
e 194 161 1.0
e 194 162 1.0
e 195 245 1.0
e 195 105 20.0
e 196 250 1.0
e 196 283 3.0
e 197 158 1.0
e 197 125 1.0
e 198 0 28.0
e 198 160 6.0
e 198 148 15.0
e 198 110 11.0
e 198 112 11.0
e 198 254 39.0
e 198 166 24.0
e 199 214 2.0
e 199 140 2.0
e 200 156 1.0
e 200 231 1.0
e 201 1 1.0
e 201 25 2.0
e 202 100 1.0
e 202 236 2.0
e 203 200 1.0
e 203 277 1.0
e 204 22 27.0
e 204 214 40.0
e 204 259 34.0
e 204 178 23.0
e 205 115 1.0
e 205 294 1.0
e 206 163 2.0
e 206 53 1.0
e 207 8 1.0
e 207 141 1.0
e 208 75 1.0
e 208 252 1.0
e 209 113 1.0
e 209 214 1.0
e 210 263 3.0
e 210 314 1.0
e 211 310 1.0
e 211 214 1.0
e 212 296 1.0
e 212 191 2.0
e 213 291 2.0
e 213 162 1.0
e 214 24 2.0
e 214 257 2.0
e 215 243 2.0
e 215 79 2.0
e 216 282 2.0
e 216 308 1.0
e 217 315 1.0
e 217 311 1.0
e 218 212 2.0
e 218 76 1.0
e 219 245 25.0
e 219 141 26.0
e 220 194 1.0
e 220 51 1.0
e 221 85 1.0
e 221 112 21.0
e 222 217 1.0
e 222 267 2.0
e 223 286 1.0
e 223 317 1.0
e 224 77 46.0
e 224 202 1.0
e 225 212 1.0
e 225 88 17.0
e 226 2 1.0
e 226 77 3.0
e 227 72 1.0
e 227 279 1.0
e 228 50 2.0
e 228 275 45.0
e 229 296 1.0
e 229 282 1.0
e 230 175 1.0
e 230 48 45.0
e 231 223 1.0
e 231 318 1.0
e 232 207 2.0
e 232 189 1.0
e 233 43 1.0
e 233 224 1.0
e 234 18 1.0
e 234 50 1.0
e 235 55 1.0
e 235 179 1.0
e 236 164 1.0
e 236 275 43.0
e 237 139 1.0
e 237 37 1.0
e 238 68 2.0
e 238 202 1.0
e 239 221 1.0
e 239 209 1.0
e 240 67 11.0
e 240 148 22.0
e 241 91 2.0
e 241 9 1.0
e 242 136 1.0
e 242 128 2.0
e 243 145 1.0
e 243 305 1.0
e 244 69 3.0
e 244 136 1.0
e 245 303 45.0
e 245 71 28.0
e 246 158 2.0
e 246 89 1.0
e 247 310 1.0
e 247 226 1.0
e 248 44 1.0
e 248 108 34.0
e 249 280 1.0
e 249 218 1.0
e 250 213 2.0
e 250 67 32.0
e 251 1 15.0
e 251 200 42.0
e 252 98 1.0
e 252 285 2.0
e 253 305 2.0
e 253 0 1.0
e 254 215 28.0
e 254 99 2.0
e 255 267 1.0
e 255 69 2.0
e 256 215 2.0
e 256 307 2.0
e 257 80 1.0
e 257 185 2.0
e 258 289 1.0
e 258 232 1.0
e 259 245 37.0
e 259 219 40.0
e 259 192 18.0
e 259 198 30.0
e 260 62 1.0
e 260 100 1.0
e 261 5 34.0
e 261 243 1.0
e 262 313 28.0
e 262 227 12.0
e 262 204 29.0
e 262 259 31.0
e 263 244 3.0
e 263 84 2.0
e 264 259 30.0
e 264 162 2.0
e 265 233 1.0
e 265 61 1.0
e 266 278 2.0
e 266 40 1.0
e 267 38 19.0
e 267 315 1.0
e 268 91 1.0
e 268 146 13.0
e 269 122 1.0
e 269 46 1.0
e 270 143 1.0
e 270 40 2.0
e 271 41 1.0
e 271 273 1.0
e 272 236 2.0
e 272 31 1.0
e 273 38 30.0
e 273 216 2.0
e 274 99 1.0
e 274 103 1.0
e 275 288 11.0
e 275 49 20.0
e 276 269 1.0
e 276 146 48.0
e 277 158 3.0
e 277 49 1.0
e 278 91 2.0
e 278 35 1.0
e 279 177 1.0
e 279 310 1.0
e 280 75 2.0
e 280 123 1.0
e 281 79 2.0
e 281 312 2.0
e 282 243 1.0
e 282 172 1.0
e 283 191 2.0
e 283 106 1.0
e 284 67 40.0
e 284 265 1.0
e 285 117 2.0
e 286 31 3.0
e 286 275 47.0
e 287 86 2.0
e 287 46 1.0
e 288 241 1.0
e 288 134 1.0
e 289 260 1.0
e 289 59 1.0
e 290 182 1.0
e 290 36 15.0
e 291 177 3.0
e 291 52 17.0
e 292 22 1.0
e 292 199 1.0
e 293 282 1.0
e 293 169 1.0
e 294 252 1.0
e 294 297 4.0
e 295 261 1.0
e 296 99 1.0
e 296 0 1.0
e 297 170 3.0
e 297 304 4.0
e 298 15 1.0
e 298 214 3.0
e 299 206 2.0
e 299 201 1.0
e 300 237 1.0
e 300 94 1.0
e 301 194 1.0
e 301 86 1.0
e 302 81 1.0
e 302 183 2.0
e 303 2 1.0
e 303 86 2.0
e 304 87 24.0
e 305 45 1.0
e 305 16 1.0
e 306 23 49.0
e 306 92 1.0
e 307 39 12.0
e 307 40 1.0
e 308 138 2.0
e 308 267 1.0
e 309 293 1.0
e 309 308 2.0
e 310 89 3.0
e 310 202 1.0
e 311 285 1.0
e 311 297 5.0
e 312 314 1.0
e 312 149 1.0
e 313 0 1.0
e 313 306 2.0
e 314 279 1.0
e 314 50 1.0
e 315 155 2.0
e 315 75 2.0
e 316 251 44.0
e 316 211 21.0
e 317 64 2.0
e 317 142 2.0
e 318 157 1.0
e 318 275 2.0
e 319 174 1.0
e 319 124 2.0
